CapLotSizing_PM/src/Instancias/TCLSLT/6i6p2m/NBB02.OUT
 CG ITER, OVMR, OVMRUB =           1    8336.0058594    7209.4985352
 CG ITER, OVMR, OVMRUB =           2    6996.5537109    7209.4985352
 CG ITER, OVMR, OVMRUB =           3    7047.4277344    7183.2993164
 CG ITER, OVMR, OVMRUB =           4    7031.8120117    7183.2993164
 CG ITER, OVMR, OVMRUB =           5    6874.3896484    7183.2993164
 CG ITER, OVMR, OVMRUB =           6    6862.6000977    7183.2993164
 CG ITER, OVMR, OVMRUB =           7    6861.4379883    7183.2993164
 CG ITER, OVMR, OVMRUB =           8    6861.3466797    7183.2993164
 CG ITER, OVMR, OVMRUB =           9    6861.3466797    7183.2993164
 CG ITER, OVMR, OVMRUB =          10    6861.3466797    7183.2993164
OVLB =    6861.3466797 OVLUB =    7183.2993164 TIME =       0.5100000
